NAME          BLANK   
ROWS
 N  OBJROW
 E  R0000000
COLUMNS
    C0000000  OBJROW    696.           R0000000  403.        
    C0000001  OBJROW    55.            R0000000   -334.      
    C0000002  OBJROW    714.           R0000000   -29.       
    C0000003  OBJROW    921.           R0000000   -858.      
    C0000004  OBJROW    350.           R0000000   -215.      
    C0000005  OBJROW    338.           R0000000  339.        
    C0000006  OBJROW    871.           R0000000  562.        
    C0000007  OBJROW    862.           R0000000   -913.      
    C0000008  OBJROW    74.            R0000000   -503.      
    C0000009  OBJROW    784.           R0000000  777.        
    C0000010  OBJROW    620.           R0000000   -599.      
    C0000011  OBJROW    478.           R0000000   -523.      
    C0000012  OBJROW    175.           R0000000  111.        
    C0000013  OBJROW    506.           R0000000  299.        
    C0000014  OBJROW    887.           R0000000  623.        
    C0000015  OBJROW    859.           R0000000  755.        
    C0000016  OBJROW    22.            R0000000  14.         
    C0000017  OBJROW    248.           R0000000  188.        
    C0000018  OBJROW    2.             R0000000  3.          
    C0000019  OBJROW    362.           R0000000   -671.      
    C0000020  OBJROW    292.           R0000000  205.        
    C0000021  OBJROW    39.            R0000000   -243.      
    C0000022  OBJROW    730.           R0000000   -309.      
    C0000023  OBJROW    851.           R0000000  782.        
    C0000024  OBJROW    824.           R0000000   -960.      
    C0000025  OBJROW    331.           R0000000   -62.       
    C0000026  OBJROW    893.           R0000000   -742.      
    C0000027  OBJROW    364.           R0000000  362.        
    C0000028  OBJROW    20.            R0000000   -133.      
    C0000029  OBJROW    267.           R0000000  232.        
    C0000030  OBJROW    954.           R0000000  713.        
    C0000031  OBJROW    747.           R0000000  754.        
    C0000032  OBJROW    577.           R0000000   -412.      
    C0000033  OBJROW    756.           R0000000  661.        
    C0000034  OBJROW    780.           R0000000   -987.      
    C0000035  OBJROW    430.           R0000000  271.        
    C0000036  OBJROW    255.           R0000000  232.        
    C0000037  OBJROW    585.           R0000000  394.        
    C0000038  OBJROW    93.            R0000000   -610.      
    C0000039  OBJROW    504.           R0000000  486.        
    C0000040  OBJROW    648.           R0000000   -374.      
    C0000041  OBJROW    601.           R0000000  604.        
    C0000042  OBJROW    972.           R0000000   -508.      
    C0000043  OBJROW    317.           R0000000   -278.      
    C0000044  OBJROW    871.           R0000000  666.        
    C0000045  OBJROW    480.           R0000000   -470.      
    C0000046  OBJROW    911.           R0000000   -248.      
    C0000047  OBJROW    257.           R0000000  151.        
    C0000048  OBJROW    418.           R0000000  415.        
    C0000049  OBJROW    695.           R0000000   -315.      
RHS
    RHS       R0000000   -1219.     
BOUNDS
 UI BOUND     C0000005         1e+30
 UI BOUND     C0000006         1e+30
 UI BOUND     C0000007         1e+30
 UI BOUND     C0000008         1e+30
 UI BOUND     C0000009         1e+30
 UI BOUND     C0000010         1e+30
 UI BOUND     C0000011         1e+30
 UI BOUND     C0000012         1e+30
 UI BOUND     C0000013         1e+30
 UI BOUND     C0000014         1e+30
 UI BOUND     C0000015         1e+30
 UI BOUND     C0000016         1e+30
 UI BOUND     C0000017         1e+30
 UI BOUND     C0000018         1e+30
 UI BOUND     C0000019         1e+30
 UI BOUND     C0000020         1e+30
 UI BOUND     C0000021         1e+30
 UI BOUND     C0000022         1e+30
 UI BOUND     C0000023         1e+30
 UI BOUND     C0000024         1e+30
 UI BOUND     C0000025         1e+30
 UI BOUND     C0000026         1e+30
 UI BOUND     C0000027         1e+30
 UI BOUND     C0000028         1e+30
 UI BOUND     C0000029         1e+30
 UI BOUND     C0000030         1e+30
 UI BOUND     C0000031         1e+30
 UI BOUND     C0000032         1e+30
 UI BOUND     C0000033         1e+30
 UI BOUND     C0000034         1e+30
 UI BOUND     C0000035         1e+30
 UI BOUND     C0000036         1e+30
 UI BOUND     C0000037         1e+30
 UI BOUND     C0000038         1e+30
 UI BOUND     C0000039         1e+30
 UI BOUND     C0000040         1e+30
 UI BOUND     C0000041         1e+30
 UI BOUND     C0000042         1e+30
 UI BOUND     C0000043         1e+30
 UI BOUND     C0000044         1e+30
 UI BOUND     C0000045         1e+30
 UI BOUND     C0000046         1e+30
 UI BOUND     C0000047         1e+30
 UI BOUND     C0000048         1e+30
 UI BOUND     C0000049         1e+30
ENDATA
